50, 571
28, 28
50, 50
14, 14
28, 28
18, 18
46, 46
18, 18
12, 12
32, 32
50, 50
4, 4
2, 2
10, 10
26, 26
30, 30
6, 6
46, 46
6, 6
32, 32
48, 48
10, 10
18, 18
16, 16
46, 46
12, 12
34, 34
20, 20
10, 10
32, 32
32, 32
14, 14
8, 8
26, 26
50, 50
36, 36
8, 8
18, 18
10, 10
12, 12
14, 14
4, 4
18, 18
50, 50
24, 24
28, 28
10, 10
28, 28
24, 24
2, 2
22, 22
